Gamma-point only (isolated Pt13 cluster)
 0
Gamma
 1 1 1
 0 0 0
