Pt13 cuboctahedral cluster in cubic box
1.0
  20.0  0.0   0.0
   0.0  20.0  0.0
   0.0   0.0  20.0
Pt
13
Direct
  0.50000  0.50000  0.50000
  0.63850  0.63850  0.50000
  0.63850  0.36150  0.50000
  0.36150  0.63850  0.50000
  0.36150  0.36150  0.50000
  0.63850  0.50000  0.63850
  0.63850  0.50000  0.36150
  0.36150  0.50000  0.63850
  0.36150  0.50000  0.36150
  0.50000  0.63850  0.63850
  0.50000  0.63850  0.36150
  0.50000  0.36150  0.63850
  0.50000  0.36150  0.36150
