 SYSTEM = <SYSTEM_NAME>
 PREC  = Accurate
 ENCUT = <ENCUT>
 EDIFF = 1E-7
 IBRION = 5
 NSW   = 1
 NFREE = 2
 POTIM = 0.015
 ISMEAR = <ISMEAR>
 SIGMA = <SIGMA>
 LREAL = Auto
 LWAVE = .FALSE.
 LCHARG = .FALSE.
 LORBIT = 11
 ISPIN = <ISPIN>
<MAGMOM_LINE>
<IVDW_LINE>
