# VASP 6.x input file -- generated for academic use
# Organic molecule geometry optimization
PREC = Normal
ENCUT = 400
EDIFF = 1E-5
EDIFFG = -0.01
IBRION = 2
ISIF = 2
NSW = 100
ISMEAR = 0
SIGMA = 0.05
LREAL = Auto
LWAVE = .FALSE.
LCHARG = .FALSE.
