 SYSTEM = <SYSTEM_NAME>
 PREC  = Accurate
 ENCUT = <ENCUT>
 EDIFF = 1E-6
 IBRION = -1
 NSW   = 0
 ISMEAR = <ISMEAR>
 SIGMA = <SIGMA>
 LREAL = Auto
 LWAVE = .FALSE.
 LCHARG = .TRUE.
 LORBIT = 11
 ISPIN = <ISPIN>
<MAGMOM_LINE>
<IVDW_LINE>
