Gamma-point only (isolated molecule)
 0
Gamma
 1 1 1
 0 0 0
