Gamma-point only (metal cluster)
 0
Gamma
 1 1 1
 0 0 0
