Automatic mesh
 0
Gamma
 N1 N2 N3
 0 0 0
