&GLOBAL
  PROJECT fe-phenolate-opt
  RUN_TYPE GEO_OPT
  PRINT_LEVEL MEDIUM
&END GLOBAL

&FORCE_EVAL
  METHOD Quickstep
  &DFT
    BASIS_SET_FILE_NAME ./BASIS_MOLOPT
    POTENTIAL_FILE_NAME ./GTH_POTENTIALS
    UKS .TRUE.
    MULTIPLICITY 5
    &MGRID
      CUTOFF 400
      REL_CUTOFF 60
    &END MGRID
    &QS
      EPS_DEFAULT 1.0E-12
    &END QS
    &SCF
      SCF_GUESS RESTART
      EPS_SCF 1.0E-7
      MAX_SCF 200
      &OT
        MINIMIZER DIIS
        PRECONDITIONER FULL_SINGLE_INVERSE
        ENERGY_GAP 0.1
      &END OT
      ADDED_MOS 30
    &END SCF
    &XC
      &XC_FUNCTIONAL PBE
      &END XC_FUNCTIONAL
      &VDW_POTENTIAL
        POTENTIAL_TYPE PAIR_POTENTIAL
        &PAIR_POTENTIAL
          PARAMETER_FILE_NAME dftd3.dat
          TYPE DFTD3
          REFERENCE_FUNCTIONAL PBE
        &END PAIR_POTENTIAL
      &END VDW_POTENTIAL
    &END XC
  &END DFT
  &SUBSYS
    &CELL
      ABC 18.0 18.0 18.0
    &END CELL
    &TOPOLOGY
      COORD_FILE_FORMAT XYZ
      COORD_FILE_NAME fe-phenolate.xyz
    &END TOPOLOGY
    &KIND H
      BASIS_SET DZVP-MOLOPT-SR-GTH
      POTENTIAL GTH-PBE
    &END KIND
    &KIND C
      BASIS_SET DZVP-MOLOPT-SR-GTH
      POTENTIAL GTH-PBE
    &END KIND
    &KIND O
      BASIS_SET DZVP-MOLOPT-SR-GTH
      POTENTIAL GTH-PBE
    &END KIND
    &KIND Fe
      BASIS_SET DZVP-MOLOPT-SR-GTH
      POTENTIAL GTH-PBE
    &END KIND
  &END SUBSYS
&END FORCE_EVAL

&MOTION
  &GEO_OPT
    MAX_ITER 200
    MAX_FORCE 4.5E-4
    RMS_FORCE 3.0E-4
    MAX_DR 3.0E-3
    RMS_DR 1.5E-3
    OPTIMIZER BFGS
  &END GEO_OPT
  &PRINT
    &TRAJECTORY
      &EACH
        GEO_OPT 1
      &END EACH
    &END TRAJECTORY
    &RESTART
      &EACH
        GEO_OPT 1
      &END EACH
    &END RESTART
  &END PRINT
&END MOTION
