&GLOBAL
  PROJECT <NAME>
  RUN_TYPE VIBRATIONAL_ANALYSIS
  PRINT_LEVEL LOW
&END GLOBAL

&FORCE_EVAL
  METHOD Quickstep
  &DFT
    BASIS_SET_FILE_NAME ./BASIS_MOLOPT
    POTENTIAL_FILE_NAME ./GTH_POTENTIALS
    UKS .TRUE.
    MULTIPLICITY <MULTIPLICITY>
    &MGRID
      CUTOFF 400
      REL_CUTOFF 60
    &END MGRID
    &QS
      EPS_DEFAULT 1.0E-12
    &END QS
    &SCF
      SCF_GUESS ATOMIC
      EPS_SCF 1.0E-7
      MAX_SCF 200
      &DIAGONALIZATION
        ALGORITHM STANDARD
      &END DIAGONALIZATION
      &SMEAR
        METHOD FERMI_DIRAC
        ELECTRONIC_TEMPERATURE [K] 500
      &END SMEAR
      ADDED_MOS 20
    &END SCF
    &XC
      &XC_FUNCTIONAL PBE
      &END XC_FUNCTIONAL
      &VDW_POTENTIAL
        POTENTIAL_TYPE PAIR_POTENTIAL
        &PAIR_POTENTIAL
          PARAMETER_FILE_NAME dftd3.dat
          TYPE DFTD3
          REFERENCE_FUNCTIONAL PBE
        &END PAIR_POTENTIAL
      &END VDW_POTENTIAL
    &END XC
  &END DFT
  &SUBSYS
    &CELL
      ABC <A> <B> <C>
    &END CELL
    &TOPOLOGY
      COORD_FILE_NAME <COORD_FILE>
      COORD_FILE_FORMAT XYZ
    &END TOPOLOGY
    &KIND <ELEM1>
      BASIS_SET DZVP-MOLOPT-SR-GTH
      POTENTIAL GTH-PBE
    &END KIND
    &KIND <ELEM2>
      BASIS_SET DZVP-MOLOPT-SR-GTH
      POTENTIAL GTH-PBE
    &END KIND
  &END SUBSYS
&END FORCE_EVAL

&MOTION
  &VIBRATIONAL_ANALYSIS
  &END VIBRATIONAL_ANALYSIS
&END MOTION
