&GLOBAL
  PROJECT h2o-opt
  RUN_TYPE GEO_OPT
  PRINT_LEVEL LOW
&END GLOBAL

&FORCE_EVAL
  METHOD Quickstep
  &DFT
    BASIS_SET_FILE_NAME ./BASIS_MOLOPT
    POTENTIAL_FILE_NAME ./GTH_POTENTIALS
    &MGRID
      CUTOFF 400
      REL_CUTOFF 60
    &END MGRID
    &QS
      EPS_DEFAULT 1.0E-12
    &END QS
    &SCF
      SCF_GUESS ATOMIC
      EPS_SCF 1.0E-6
      MAX_SCF 50
      &OT
        MINIMIZER CG
        PRECONDITIONER FULL_SINGLE_INVERSE
      &END OT
    &END SCF
    &XC
      &XC_FUNCTIONAL PBE
      &END XC_FUNCTIONAL
      &VDW_POTENTIAL
        POTENTIAL_TYPE PAIR_POTENTIAL
        &PAIR_POTENTIAL
          PARAMETER_FILE_NAME dftd3.dat
          TYPE DFTD3
          REFERENCE_FUNCTIONAL PBE
        &END PAIR_POTENTIAL
      &END VDW_POTENTIAL
    &END XC
  &END DFT
  &SUBSYS
    &CELL
      ABC 15.0 15.0 15.0
    &END CELL
    &TOPOLOGY
      COORD_FILE_FORMAT XYZ
      COORD_FILE_NAME h2o.xyz
    &END TOPOLOGY
    &KIND H
      BASIS_SET DZVP-MOLOPT-SR-GTH
      POTENTIAL GTH-PBE
    &END KIND
    &KIND O
      BASIS_SET DZVP-MOLOPT-SR-GTH
      POTENTIAL GTH-PBE
    &END KIND
  &END SUBSYS
&END FORCE_EVAL

&MOTION
  &GEO_OPT
    MAX_ITER 100
    MAX_FORCE 4.5E-4
    RMS_FORCE 3.0E-4
    MAX_DR 3.0E-3
    RMS_DR 1.5E-3
    OPTIMIZER BFGS
  &END GEO_OPT
&END MOTION
