Phonon calculation of <NAME>
&INPUTPH
  outdir   = '<OUTDIR>'
  prefix   = '<NAME>'
  ldisp    = .FALSE.
  tr2_ph   = 1.D-14
  epsil    = .FALSE.
  trans    = .TRUE.
  recover  = .FALSE.
/
