# VASP 6.x input file -- generated for academic use
# Methane geometry optimization at PBE-D3 level
PREC = Normal
ENCUT = 400
EDIFF = 1E-5
EDIFFG = -0.01
IBRION = 2
ISIF = 2
NSW = 100
ISMEAR = 0
SIGMA = 0.05
LREAL = Auto
IVDW = 12
LASPH = .TRUE.
LWAVE = .FALSE.
LCHARG = .FALSE.
