Gamma-point only (isolated methane)
 0
Gamma
 1 1 1
 0 0 0
