Methane (CH4) isolated molecule in cubic box
1.0
  15.0  0.0    0.0
   0.0  15.0   0.0
   0.0   0.0  15.0
C H
1 4
Direct
  0.5000  0.5000  0.5000
  0.5726  0.5000  0.5000
  0.4758  0.5685  0.5000
  0.4758  0.4861  0.5585
  0.4758  0.4861  0.4415
