# Harmonic frequency analysis of <MOLECULE_NAME> at <FUNCTIONAL>-D3(BJ)/<BASIS> level
# ORCA 5+ input file -- generated for academic use

! <FUNCTIONAL> D3BJ <BASIS> Freq RIJCOSX DefGrid2 TightSCF

%maxcore <MEMORY_MB>

* xyz <CHARGE> <MULTIPLICITY>
<COORDINATES>
*
