# Geometry optimization of <MOLECULE_NAME> at <FUNCTIONAL>-D3(BJ)/<BASIS> level
# ORCA 5+ input file -- generated for academic use
# Neutral, closed-shell organic molecule

! <FUNCTIONAL> D3BJ <BASIS> Opt TightOpt RIJCOSX DefGrid2 TightSCF

%maxcore <MEMORY_MB>

%geom
  Calc_Hess true
  Recalc_Hess 5
end

* xyz <CHARGE> <MULTIPLICITY>
<COORDINATES>
*
