# Harmonic frequency analysis of <MOLECULE_NAME> at <FUNCTIONAL>-D3(BJ)/<BASIS> level
# Transition metal complex -- tighter SCF for accurate frequencies
# ORCA 5+ input file -- generated for academic use

! <FUNCTIONAL> D3BJ <BASIS> Freq RIJCOSX DefGrid2 TightSCF

%maxcore <MEMORY_MB>

%scf
  MaxIter 500
  Convergence Tight
end

* xyz <CHARGE> <MULTIPLICITY>
<COORDINATES>
*
